c t mc
c file mc2020_track1_004.cnf
p cnf 1729 1080
361 0
-66 0
91 0
92 0
110 0
-111 0
130 0
149 0
-168 0
169 0
164 0
-199 0
218 0
-200 0
-237 0
-219 0
-238 0
-257 0
276 0
-216 0
-244 0
245 0
-249 0
-271 0
-336 0
-337 0
-360 0
-20 0
-4 0
-5 0
-7 0
-8 0
-27 0
-9 0
-28 0
-10 0
-11 0
-14 0
-18 0
-19 0
-37 0
-41 0
-43 0
-46 0
-65 0
-47 0
-48 0
-67 0
-86 0
-87 0
-45 0
-30 0
-31 0
-58 0
-77 0
-63 0
-52 0
-53 0
-73 0
-74 0
-93 0
-112 0
-80 0
-81 0
-100 0
-94 0
-95 0
-83 0
-122 0
-106 0
-107 0
-125 0
-108 0
-134 0
-153 0
-172 0
-191 0
-210 0
-211 0
-229 0
-230 0
-248 0
-267 0
-286 0
-119 0
-138 0
-139 0
-140 0
-124 0
-143 0
-129 0
-163 0
-146 0
-165 0
-171 0
-156 0
-175 0
-161 0
-185 0
-189 0
-192 0
-193 0
-198 0
-217 0
-182 0
-201 0
-220 0
-187 0
-188 0
-206 0
-207 0
-226 0
-215 0
-222 0
-225 0
-246 0
-234 0
-235 0
-252 0
-272 0
-278 0
-263 0
-309 0
-292 0
-311 0
-313 0
-314 0
-315 0
-320 0
-324 0
-325 0
-343 0
-326 0
-344 0
-345 0
-317 0
-338 0
-346 0
-349 0
-137 0
-57 0
-323 0
-202 0
-176 0
-283 0
-293 0
-26 0
-36 0
-62 0
-72 0
-75 0
-99 0
-121 0
-136 0
-135 0
-142 0
-148 0
-197 0
-196 0
-195 0
-228 0
-275 0
-310 0
-328 0
-330 0
-342 0
-341 0
-359 0
-322 0
-340 0
-358 0
-357 0
-64 0
-70 0
-88 0
-90 0
-117 0
-127 0
-109 0
-141 0
-152 0
-162 0
-167 0
-173 0
-180 0
-174 0
-205 0
-213 0
-240 0
-296 0
-306 0
-331 0
-335 0
-224 0
-287 0
-312 0
-333 0
-334 0
-231 0
-32 0
-319 0
-339 0
-1722 -356 -300 318 -301 321 0
-1725 303 -300 318 -301 -321 0
-71 126 -128 -105 -89 0
268 305 288 115 307 0
154 -155 115 -116 98 0
155 -116 115 -154 98 0
348 350 332 -274 -291 0
894 -147 -128 145 0
1421 -282 262 281 0
-1421 262 282 281 0
1420 -282 -262 281 0
-1420 -262 282 281 0
-838 -132 -114 133 0
838 -132 -114 -133 0
-839 114 133 -132 0
839 114 -133 -132 0
-840 133 -114 132 0
840 -133 -114 132 0
-841 132 133 114 0
841 132 -133 114 0
1419 -282 -281 262 0
-724 -85 -103 104 0
-894 147 -128 145 0
-1419 282 -281 262 0
772 115 -97 -116 0
-773 116 97 115 0
773 97 -116 115 0
1453 -253 -290 -291 0
-1453 -253 -290 291 0
1452 253 -290 -291 0
-1452 253 291 -290 0
-719 102 101 82 0
719 -102 101 82 0
1487 280 298 -299 0
-1487 280 298 299 0
1486 298 -299 -280 0
-1486 298 299 -280 0
893 -147 128 -145 0
724 -85 -103 -104 0
-147 892 -128 -145 0
-893 147 -145 128 0
-932 157 -118 155 0
932 -157 -118 155 0
-933 155 118 157 0
933 155 118 -157 0
-934 -157 120 158 0
934 -157 120 -158 0
-935 -157 -120 158 0
935 -157 -120 -158 0
-936 157 120 158 0
936 -158 120 157 0
-937 157 158 -120 0
937 157 -120 -158 0
1369 250 -269 268 0
-1369 250 268 269 0
1368 -250 -269 268 0
-1368 -250 268 269 0
1367 250 -268 -269 0
1411 -280 -279 261 0
-1411 280 -279 261 0
1410 -280 -279 -261 0
-1410 280 -279 -261 0
-880 144 105 123 0
880 -144 105 123 0
-881 123 -105 144 0
881 -144 123 -105 0
-882 144 105 -123 0
882 -144 105 -123 0
-883 -123 -105 144 0
883 -144 -123 -105 0
-1674 -347 -329 348 0
-1389 273 255 274 0
-892 147 -128 -145 0
-931 118 -155 157 0
931 118 -155 -157 0
1674 -347 -329 -348 0
1383 -273 253 254 0
-1383 273 253 254 0
1382 -273 253 -254 0
-1382 273 253 -254 0
921 116 -115 -154 0
-760 56 113 -55 0
-761 -56 113 -55 0
761 -56 -113 -55 0
55 17 35 54 0
1389 273 255 -274 0
-1455 -253 290 291 0
1454 253 290 -291 0
-1454 290 291 253 0
-770 -115 -97 116 0
-1367 250 -268 269 0
1366 -250 -268 -269 0
-639 -44 -61 82 0
531 51 35 -54 0
-532 -35 -51 54 0
532 -35 -51 -54 0
-533 -51 35 54 0
533 -51 35 -54 0
1670 -347 290 -327 0
-1671 347 -290 -327 0
1455 290 -291 -253 0
-510 29 25 49 0
510 29 25 -49 0
-511 -29 25 49 0
511 -29 25 -49 0
-512 29 49 -25 0
512 29 -25 -49 0
-513 -29 -25 49 0
513 -29 -25 -49 0
-727 85 104 103 0
727 85 -104 103 0
1485 -299 -298 280 0
-1485 299 -298 280 0
1484 -299 -298 -280 0
-1484 299 -298 -280 0
-800 -103 123 -104 0
800 -103 -123 -104 0
-801 -103 123 104 0
801 -103 -123 104 0
760 56 -113 -55 0
1433 266 284 -285 0
-1433 285 284 266 0
770 -115 -97 -116 0
-771 116 -115 97 0
771 -116 -115 97 0
-772 115 -97 116 0
-1366 -268 269 -250 0
-895 128 145 147 0
895 128 145 -147 0
1388 273 -255 -274 0
-1388 273 -255 274 0
1387 255 -274 -273 0
-1387 255 274 -273 0
1152 -157 -214 -194 0
1386 -255 -274 -273 0
-1386 -255 274 -273 0
1385 -273 -253 254 0
-1385 273 -253 254 0
1384 -273 -253 -254 0
-1384 273 -253 -254 0
-725 85 -103 104 0
725 85 -103 -104 0
-726 -85 104 103 0
726 -85 -104 103 0
1295 -250 -115 212 0
1294 -250 -115 -212 0
-1147 212 -154 115 0
1147 -212 -154 115 0
1133 170 186 -208 0
-1133 208 170 186 0
1132 -170 186 -208 0
-1132 -170 186 208 0
1131 -186 170 -208 0
1190 -223 221 -204 0
-1190 223 221 -204 0
1189 204 -221 -223 0
-1189 204 -221 223 0
1188 -204 -221 -223 0
-1188 -204 -221 223 0
1155 -212 -214 194 0
-1155 -212 214 194 0
-184 -181 183 203 0
282 -264 -265 -284 0
1258 -241 -239 -221 0
-1134 -208 -190 209 0
1134 -208 -190 -209 0
-1135 209 190 -208 0
1135 -209 190 -208 0
-1136 208 -190 209 0
1136 208 -190 -209 0
-1137 209 190 208 0
1137 -209 190 208 0
-1432 285 284 -266 0
787 -120 101 118 0
-787 120 101 118 0
1432 -285 284 -266 0
-1146 212 154 115 0
-1260 241 239 -221 0
1260 -241 239 -221 0
1153 -214 194 212 0
-1152 -157 214 -194 0
-788 120 -101 -118 0
1431 -285 266 -284 0
786 -101 118 -120 0
-1191 223 221 204 0
1294 -250 115 212 0
1295 -250 115 -212 0
-1295 250 115 -212 0
-1294 250 115 212 0
-1294 250 -115 -212 0
-1295 250 -115 212 0
-798 -104 103 123 0
-1431 285 266 -284 0
1430 -285 -284 -266 0
-1430 285 -284 -266 0
-799 123 104 103 0
1418 -282 -262 -281 0
-789 120 101 -118 0
-1444 289 -288 -270 0
1444 -289 -270 -288 0
-1445 289 -288 270 0
789 -120 101 -118 0
1445 -289 -288 270 0
-1446 289 288 -270 0
1446 -289 -270 288 0
-1447 289 270 288 0
1447 -289 270 288 0
-786 120 -101 118 0
798 -104 103 -123 0
-930 157 -118 -155 0
930 -157 -118 -155 0
788 -120 -101 -118 0
-1310 254 -233 253 0
1309 -253 233 -254 0
-1309 -253 233 254 0
1308 -253 -233 -254 0
-1308 254 -233 -253 0
1307 -253 233 -251 0
-1307 253 233 -251 0
1306 -233 -251 -253 0
-1306 -233 -251 253 0
1305 -253 233 251 0
-1305 253 233 251 0
1304 -233 251 -253 0
-1304 -233 251 253 0
1299 250 232 -251 0
1310 253 -233 -254 0
-1418 -262 282 -281 0
1417 280 -281 262 0
-1417 280 262 281 0
1416 280 -262 -281 0
-1416 280 -262 281 0
1415 262 -281 -280 0
-1415 262 281 -280 0
1414 -262 -281 -280 0
-1414 -262 281 -280 0
1413 261 279 -280 0
-1413 261 279 280 0
1412 -261 279 -280 0
-1412 -261 279 280 0
-920 -116 -115 154 0
920 -116 -115 -154 0
-921 116 -115 154 0
1116 -204 203 166 0
-1117 -166 203 204 0
1117 -204 203 -166 0
1265 241 223 -242 0
-1265 241 223 242 0
1264 241 -223 -242 0
-1264 241 -223 242 0
1263 -241 223 -242 0
-1263 -241 223 242 0
1262 -241 -223 -242 0
-1262 -241 -223 242 0
1311 253 233 -254 0
-1311 253 233 254 0
1191 -223 221 204 0
-1130 208 -170 -186 0
1130 -208 -170 -186 0
1312 -254 -236 -255 0
-1299 250 232 251 0
1298 250 -232 -251 0
-1298 250 -232 251 0
1297 -250 232 -251 0
-1297 -250 232 251 0
1296 -250 -232 -251 0
-1296 -250 -232 251 0
799 -123 104 103 0
-1153 157 -194 214 0
1283 209 -247 227 0
1282 -209 -247 227 0
-209 -1282 227 247 0
-1114 166 -203 204 0
1114 166 -203 -204 0
-1131 208 170 -186 0
1115 -204 -203 -166 0
-1116 204 203 166 0
-1337 242 -260 261 0
1336 -242 -260 -261 0
-1336 -242 -260 261 0
1335 241 259 -260 0
-1335 241 259 260 0
1334 -241 259 -260 0
1315 254 236 -255 0
-1315 254 236 255 0
1314 -255 -236 254 0
-1314 254 -236 255 0
1313 -255 236 -254 0
-1313 255 236 -254 0
-1115 204 -203 -166 0
-1312 255 -236 -254 0
-1012 -177 -159 178 0
1012 -177 -159 -178 0
1354 264 227 -265 0
-1354 264 227 265 0
1353 -264 -227 -265 0
-1353 -264 -227 265 0
1352 -264 227 -265 0
-1352 -264 227 265 0
1341 -261 243 -262 0
541 -56 55 17 0
-1341 -261 243 262 0
1340 -261 -243 -262 0
-1340 -261 -243 262 0
1339 242 260 -261 0
-1339 242 260 261 0
1338 -242 260 -261 0
-1338 -242 260 261 0
1337 242 -260 -261 0
1038 145 -184 183 0
-1039 -145 183 184 0
1039 -145 -184 183 0
-413 -23 -3 24 0
413 -23 -3 -24 0
1492 -282 -300 -301 0
-1492 -282 -300 301 0
-157 -158 177 155 0
-1603 329 327 290 0
1504 -285 -303 -304 0
-1504 -285 -303 304 0
1502 -303 302 -284 0
-1502 303 302 -284 0
-1037 -183 -145 184 0
1551 294 297 -316 0
-1551 294 297 316 0
-1013 -177 159 178 0
1013 -177 159 -178 0
-1014 178 177 -159 0
1014 -178 177 -159 0
-1015 178 177 159 0
1015 -178 177 159 0
-1016 -178 -160 179 0
1343 261 243 -262 0
-1343 261 243 262 0
1342 261 -243 -262 0
-1342 261 -243 262 0
-1036 -183 145 184 0
1037 -183 -145 -184 0
-1038 145 183 184 0
-1017 -178 160 179 0
552 -59 -60 -22 0
1016 -178 -160 -179 0
-553 -59 60 22 0
553 -59 -60 22 0
-554 -22 60 59 0
554 -22 -60 59 0
-599 71 -51 -89 0
599 -89 -51 -71 0
-1694 353 -352 -332 0
1561 -316 -318 299 0
-1561 -316 299 318 0
256 274 -291 -294 0
1036 145 -184 -183 0
1560 -316 -299 -318 0
-1560 -316 -299 318 0
1559 -318 299 316 0
408 -23 -3 -22 0
412 -23 3 -24 0
-412 -23 3 24 0
411 -23 3 22 0
-411 22 3 23 0
-541 56 55 17 0
-409 -22 3 23 0
410 -23 -3 22 0
-1573 302 -301 321 0
-410 23 -3 22 0
409 -22 3 -23 0
1573 302 -301 -321 0
1018 178 -160 -179 0
-1018 178 -160 179 0
1017 -178 160 -179 0
-1019 178 160 179 0
1019 178 160 -179 0
-552 -22 60 -59 0
-405 3 -21 22 0
404 -3 -21 -22 0
-404 -3 -21 22 0
-1689 351 350 332 0
1689 -351 332 350 0
-597 71 89 -51 0
1603 -290 -291 -329 0
329 -291 -274 332 0
-1334 -241 259 260 0
1333 241 -260 -259 0
-1333 241 260 -259 0
-1677 347 329 348 0
-1332 -241 260 -259 0
1355 264 -227 -265 0
-1355 264 -227 265 0
-408 -22 -3 23 0
407 -22 21 3 0
-407 22 21 3 0
-1603 -290 -291 329 0
406 -22 21 -3 0
-588 69 -68 -50 0
588 -50 -68 -69 0
597 89 -51 -71 0
415 23 -3 -24 0
1602 -329 291 -290 0
-1602 -290 291 329 0
1332 -241 -260 -259 0
-1601 -327 329 290 0
1603 290 327 -329 0
1671 -347 -290 -327 0
-415 23 -3 24 0
414 23 3 -24 0
485 22 -42 23 0
-485 22 42 23 0
484 22 -42 -23 0
405 3 -21 -22 0
-406 22 21 -3 0
-531 51 35 54 0
530 -35 51 -54 0
-530 -35 51 54 0
1677 347 329 -348 0
1601 -329 -327 290 0
1676 347 -329 -348 0
-1676 347 -329 348 0
-184 -183 203 181 0
-484 22 42 -23 0
483 23 -42 -22 0
1695 332 -353 -352 0
1696 352 -353 -332 0
-1697 353 352 332 0
1697 352 -353 332 0
-1552 -297 -294 316 0
1552 -297 -294 -316 0
-1553 -294 297 316 0
1553 -294 297 -316 0
475 21 -40 -39 0
-476 39 -21 40 0
476 39 -21 -40 0
-477 39 40 21 0
477 21 39 -40 0
-482 -23 42 -22 0
482 -23 -42 -22 0
-483 23 42 -22 0
1521 307 -308 289 0
-1521 289 307 308 0
1520 -289 307 -308 0
-1520 -289 307 308 0
1519 289 -308 -307 0
-1519 289 308 -307 0
1518 -289 -308 -307 0
-1518 -289 308 -307 0
1507 285 303 -304 0
-1507 285 303 304 0
1506 -285 -304 303 0
1494 -282 300 -301 0
1505 285 -304 -303 0
-1505 285 304 -303 0
1675 -347 329 -348 0
455 15 33 -34 0
-492 44 -24 -25 0
492 -44 -24 -25 0
-455 15 33 34 0
454 -15 33 -34 0
-454 -15 33 34 0
453 15 -34 -33 0
-453 15 34 -33 0
452 -15 -34 -33 0
-555 22 60 59 0
-452 -15 34 -33 0
-1506 -285 304 303 0
-474 -39 -21 40 0
474 -39 -21 -40 0
-475 21 40 -39 0
-1675 -347 329 348 0
282 264 302 -301 0
-133 170 190 151 0
1146 -212 154 115 0
-123 160 181 179 0
209 -1283 227 247 0
-1153 212 214 194 0
-1696 353 352 -332 0
-1493 282 -300 301 0
1493 282 -300 -301 0
-1494 -282 300 301 0
-1670 347 290 -327 0
-1495 301 300 282 0
1495 282 300 -301 0
703 79 -98 97 0
-703 79 97 98 0
1153 -214 -194 157 0
-118 61 98 -116 0
555 22 -60 59 0
641 -44 61 -82 0
-641 -44 82 61 0
640 44 61 -82 0
-640 44 61 82 0
639 -44 -82 -61 0
-1550 -297 294 316 0
1550 -297 294 -316 0
-414 23 3 24 0
-638 44 82 -61 0
638 44 -82 -61 0
-282 264 -265 -284 0
-625 -39 78 59 0
-1559 316 299 318 0
1558 -299 -318 316 0
625 -39 -78 59 0
268 288 -269 115 0
-154 194 115 155 0
-204 -223 -243 186 0
177 -158 -155 157 0
-1558 -299 318 316 0
-1695 353 -352 332 0
-1258 241 -239 -221 0
-56 55 76 -38 0
-282 -264 -301 302 0
1694 -352 -353 -332 0
702 -79 -98 0
-596 71 51 0
-702 -79 98 0
-56 -55 -76 0
-1259 241 221 0
1688 -351 -332 0
-391 15 16 0
-393 16 17 0
-212 232 -194 0
-472 39 1 0
1503 -303 284 0
-1503 303 284 0
-1688 351 -332 0
1687 -351 -350 0
-1687 351 -350 0
-589 69 50 0
-383 12 -6 0
540 -56 -17 0
-540 56 -17 0
539 -56 -55 0
-214 233 -232 0
-316 332 -354 0
-212 -232 194 0
79 -60 -78 0
392 -17 -16 0
393 -17 16 0
-212 1144 -115 0
-1144 212 -115 0
362 -2 -1 0
-363 1 2 0
-69 89 25 0
308 -327 305 0
-270 251 -269 0
384 -12 -13 0
769 -115 96 0
-56 38 -76 0
390 -15 -16 0
104 -25 105 0
-385 12 13 0
239 -259 -221 0
56 38 76 0
-24 -25 6 0
472 -39 1 0
295 277 -297 0
-69 89 -51 0
-120 158 -159 0
1500 -303 -302 0
-1500 303 -302 0
-434 -6 29 0
624 -59 -78 0
-624 -59 78 0
623 39 -78 0
-623 39 78 0
-279 -298 297 0
-473 -1 39 0
282 264 284 0
-282 264 -302 0
299 -300 281 0
-34 -35 16 0
-371 -3 6 0
-266 -247 -265 0
371 -3 -6 0
-382 12 6 0
382 -12 6 0
49 -25 -68 0
154 155 116 0
-810 126 105 0
-13 -33 -51 0
-1673 347 327 0
-1572 321 -302 0
1572 -321 -302 0
1673 -347 327 0
-352 -294 332 0
321 356 -1724 0
-33 -13 -29 0
120 160 103 0
-695 -39 96 0
274 294 291 0
762 55 -113 0
212 232 -115 0
-158 -120 159 0
-183 -181 -203 0
-147 -166 -186 0
389 -15 -13 0
1259 -241 221 0
-919 154 115 0
919 -154 115 0
-362 -1 2 0
-389 15 -13 0
383 -12 -6 0
-539 56 -55 0
1571 -321 301 0
-384 -12 13 0
-1571 321 301 0
-50 -29 -49 0
116 -155 -154 0
810 -126 105 0
-433 29 6 0
-493 44 25 0
493 -44 25 0
490 -44 24 0
-392 -16 17 0
38 -471 17 0
-490 44 24 0
-364 3 -2 0
471 -38 17 0
-303 -321 -1724 0
468 -38 -17 0
590 -69 68 0
-590 69 68 0
589 -69 50 0
-468 38 -17 0
434 -6 -29 0
433 -29 6 0
-282 -264 284 0
-158 120 -159 0
-701 98 -97 0
120 158 159 0
596 51 -71 0
701 -98 -97 0
-1285 247 -227 0
-717 -101 102 0
717 -101 -102 0
-762 55 113 0
-718 102 -82 0
695 -96 -39 0
1285 -227 -247 0
813 -126 -105 0
51 13 -50 0
-813 126 -105 0
718 -102 -82 0
-1709 355 356 0
-1032 -181 183 0
1032 -183 -181 0
-1252 239 -181 0
1252 -239 -181 0
239 -1253 181 0
1253 -239 181 0
147 128 186 0
1365 -268 115 0
-1365 268 115 0
1363 -115 -268 0
-1363 -115 268 0
1350 262 -264 0
-982 -151 170 0
982 -151 -170 0
170 -983 151 0
260 -279 -259 0
364 -3 -2 0
-144 126 -145 0
473 -1 -39 0
1449 -289 -290 0
-1451 289 290 0
1451 289 -290 0
-830 131 -55 0
830 -131 -55 0
831 55 -131 0
-831 55 131 0
1326 -239 -258 0
-1449 -289 290 0
-1326 -239 258 0
1319 255 -256 0
-1319 255 256 0
1705 -355 354 0
-1705 355 354 0
1703 -355 -354 0
-1703 355 -354 0
-1470 295 294 0
1470 -295 294 0
905 131 -150 0
-905 131 150 0
1327 239 -258 0
-329 -332 -274 0
-155 -154 -115 0
154 155 -115 0
1468 -295 -294 0
-1468 295 -294 0
-904 -131 150 0
904 -131 -150 0
983 151 -170 0
1709 355 -356 0
-1327 239 258 0
-1350 262 264 0
1348 -262 -264 0
-1348 264 -262 0
-1034 181 183 0
1034 -183 181 0
1317 -255 -256 0
-1317 -255 256 0
1707 -355 -356 0
-1707 356 -355 0
-1398 277 -258 0
1398 -277 -258 0
-1399 277 258 0
1399 -277 258 0
-651 85 -84 0
651 -85 -84 0
-653 85 84 0
653 -85 84 0
-42 60 61 0
-305 1509 115 0
-98 -155 -154 0
-388 15 13 0
385 12 -13 0
51 -89 -25 0
103 102 84 0
-2 363 1 0
316 354 353 0
233 -236 179 0
101 61 82 0
208 227 186 0
243 242 -186 0
204 243 242 0
223 242 243 0
-768 -96 115 0
-291 294 -274 0
-1508 -115 305 0
-305 1508 -115 0
-157 -177 -155 0
-150 -132 151 0
-1509 115 305 0
353 354 -332 0
694 39 -96 0
-2 1 21 0
131 132 113 0
388 -15 13 0
56 -38 -76 0
352 -351 294 0
-351 352 -332 0
-294 274 332 0
-277 259 297 0
-295 259 297 0
-25 -84 82 0
212 -232 115 0
-694 39 96 0
76 114 113 0
-40 -39 59 0
97 96 78 0
-147 -166 -145 0
154 155 -98 0
-264 282 -302 0
157 155 -177 0
768 -96 -115 0
-256 274 294 0
-294 -274 291 0
147 -166 145 0
-258 221 259 0
-239 259 -258 0
391 15 -16 0
370 3 -6 0
-147 145 166 0
147 -145 166 0
183 221 181 0
365 -3 2 0
-370 3 6 0
-166 -186 -128 0
-365 3 2 0
51 33 -50 0
-120 -160 -159 0
-390 -15 16 0
-160 -159 -103 0
-769 115 96 0
29 33 0
71 128 0
-17 -55 0
-113 -114 0
-104 -105 0
274 -350 0
-6 25 0
351 -352 0
247 266 0
-131 -132 0
-208 -227 0
-194 -115 0
-151 -190 0
-113 -132 0
69 -89 0
-179 -181 0
-101 -82 0
-242 -243 0
150 -151 0
-348 -350 0
-1 -21 0
-179 236 0
232 -233 0
236 -233 0
-160 -181 0
132 -151 0
298 279 0
-281 300 0
298 -297 0
-299 300 0
301 -1724 0
-297 -259 0
42 -61 0
39 -59 0
214 -233 0
-115 -288 0
-126 145 0
265 284 0
-318 -1724 0
24 25 0
-61 -60 0
-227 -186 0
258 -259 0
-101 -61 0
128 105 0
154 -194 0
184 -203 0
-16 35 0
-305 -307 0
294 -332 0
-332 -350 0
266 265 0
116 118 0
-35 -55 0
-96 -97 0
133 -190 0
-61 118 0
-102 -103 0
-103 -84 0
40 -59 0
29 50 0
50 49 0
78 -79 0
34 35 0
-177 158 0
301 -302 0
13 33 0
60 -79 0
291 -350 0
300 -1724 0
-183 -221 0
-170 -190 0
89 128 0
-126 128 0
-268 -288 0
284 -302 0
123 -181 0
-98 118 0
50 -51 0
-305 327 0
-353 -354 0
144 145 0
-54 -55 0
-307 -288 0
-194 -155 0
259 279 0
-260 279 0
159 160 0
2 -21 0
-115 -307 0
-268 -307 0
-288 269 0
-76 -114 0
-181 -221 0
186 166 0
-308 327 0
-97 -78 0
-203 -221 0
269 270 0
270 -251 0
-49 68 0
68 25 0
-82 84 0
84 25 0
-105 25 0
